c Maximum weighted clique instances generated from exactcolors.
c cutoff: 10177647.
c A clique of value > scalef (10177647) defines an improving stable sets for coloring.
p edge 30 0
n 1 10177647
n 2 10177647
n 3 10177647
n 4 10177647
n 5 10177647
n 6 10177647
n 7 10177647
n 8 10177647
n 9 10177647
n 10 10177647
n 11 10177647
n 12 10177647
n 13 10177647
n 14 10177647
n 15 10177647
n 16 10177647
n 17 10177647
n 18 10177647
n 19 10177647
n 20 10177647
n 21 10177647
n 22 10177647
n 23 10177647
n 24 10177647
n 25 10177647
n 26 10177647
n 27 10177647
n 28 10177647
n 29 10177647
n 30 10177647
